* (set-logic ALL)
* (set-info :status sat)
* (declare-fun a () (_ BitVec 32))
* 
* (assert (>= (bv2nat a) 50000))
* (assert (<= (bv2nat a) 60000))
* 
* (check-sat)
* sat
* #variable= 96 #constraint= 66
+1 x64 = 0;
+1 x63 = 0;
+1 x62 = 0;
+1 x61 = 0;
+1 x43 = 0;
+1 x42 = 1;
+1 x41 = 1;
+1 x39 = 1;
+1 x38 = 0;
+1 x37 = 1;
+1 x36 = 0;
+1 x35 = 0;
+1 x34 = 0;
+1 x33 = 0;
+1 x44 = 0;
+1 x40 = 0;
+1 x1 +2 x2 +4 x3 +8 x4 +16 x5 +32 x6 +64 x7 +128 x8 +256 x9 +512 x10 +1024 x11 +2048 x12 +4096 x13 +8192 x14 +16384 x15 +32768 x16 +65536 x17 +131072 x18 +262144 x19 +524288 x20 +1048576 x21 +2097152 x22 +4194304 x23 +8388608 x24 +16777216 x25 +33554432 x26 +67108864 x27 +134217728 x28 +268435456 x29 +536870912 x30 +1073741824 x31 +2147483648 x32 -1 x33 -2 x34 -4 x35 -8 x36 -16 x37 -32 x38 -64 x39 -128 x40 -256 x41 -512 x42 -1024 x43 -2048 x44 -4096 x45 -8192 x46 -16384 x47 -32768 x48 -65536 x49 -131072 x50 -262144 x51 -524288 x52 -1048576 x53 -2097152 x54 -4194304 x55 -8388608 x56 -16777216 x57 -33554432 x58 -67108864 x59 -134217728 x60 -268435456 x61 -536870912 x62 -1073741824 x63 -2147483648 x64 >= 0;
+1 x56 = 0;
+1 x45 = 0;
+1 x46 = 0;
+1 x47 = 1;
+1 x48 = 1;
+1 x49 = 0;
+1 x50 = 0;
+1 x51 = 0;
+1 x52 = 0;
+1 x53 = 0;
+1 x54 = 0;
+1 x55 = 0;
+1 x57 = 0;
+1 x58 = 0;
+1 x59 = 0;
+1 x60 = 0;
+1 x96 = 0;
+1 x95 = 0;
+1 x94 = 0;
+1 x93 = 0;
+1 x76 = 1;
+1 x75 = 0;
+1 x74 = 1;
+1 x73 = 0;
+1 x72 = 0;
+1 x70 = 1;
+1 x69 = 0;
+1 x68 = 0;
+1 x67 = 0;
+1 x66 = 0;
+1 x65 = 1;
+1 x71 = 1;
+1 x65 +2 x66 +4 x67 +8 x68 +16 x69 +32 x70 +64 x71 +128 x72 +256 x73 +512 x74 +1024 x75 +2048 x76 +4096 x77 +8192 x78 +16384 x79 +32768 x80 +65536 x81 +131072 x82 +262144 x83 +524288 x84 +1048576 x85 +2097152 x86 +4194304 x87 +8388608 x88 +16777216 x89 +33554432 x90 +67108864 x91 +134217728 x92 +268435456 x93 +536870912 x94 +1073741824 x95 +2147483648 x96 -1 x1 -2 x2 -4 x3 -8 x4 -16 x5 -32 x6 -64 x7 -128 x8 -256 x9 -512 x10 -1024 x11 -2048 x12 -4096 x13 -8192 x14 -16384 x15 -32768 x16 -65536 x17 -131072 x18 -262144 x19 -524288 x20 -1048576 x21 -2097152 x22 -4194304 x23 -8388608 x24 -16777216 x25 -33554432 x26 -67108864 x27 -134217728 x28 -268435456 x29 -536870912 x30 -1073741824 x31 -2147483648 x32 >= 1;
+1 x86 = 0;
+1 x77 = 0;
+1 x78 = 1;
+1 x79 = 1;
+1 x80 = 1;
+1 x81 = 0;
+1 x82 = 0;
+1 x83 = 0;
+1 x84 = 0;
+1 x85 = 0;
+1 x87 = 0;
+1 x88 = 0;
+1 x89 = 0;
+1 x90 = 0;
+1 x91 = 0;
+1 x92 = 0;
